N = 11;
H = 5;
T = 2;

avail = array3d(1..N, 1..H, 1..T, [1, 9, 7, 0, 7, 4, 3, 7, 9, 5, 8, 8, 7, 10, 3, 10, 9, 4, 3, 9, 8, 8, 7, 3, 4, 0, 6, 3, 6, 4, 0, 5, 0, 0, 5, 3, 5, 4, 1, 9, 7, 6, 5, 6, 8, 0, 9, 7, 5, 0, 5, 7, 3, 5, 7, 1, 5, 9, 3, 7, 0, 2, 4, 6, 9, 1, 3, 5, 9, 7, 9, 5, 5, 5, 7, 3, 0, 9, 2, 0, 2, 8, 5, 4, 3, 9, 1, 1, 9, 6, 8, 10, 1, 6, 3, 9, 10, 6, 9, 8, 5, 1, 8, 6, 6, 10, 1, 8, 2, 10]);

r = array2d(1..H, 1..T, [1, 4, 3, 1, 2, 0, 3, 4, 3, 2]);
